clingo version 5.2.2
Reading from ...pr180_u540_o12_N010_encoding-a_maxR.lp ...
Solving...
Solving...
Solving...
Solving...
Solving...
Solving...
Solving...
Solving...
Solving...
Solving...
Solving...
Solving...
Solving...
Solving...
Solving...
Solving...
Solving...
Solving...
Solving...
Solving...
Solving...
Solving...
Solving...
Solving...
Solving...
Solving...
Solving...
Solving...
Solving...
Solving...
Solving...
Solving...
Solving...
Solving...
Solving...
Solving...
Solving...
Solving...
Solving...
Solving...
Solving...
Solving...
Solving...
Solving...
Solving...
Solving...
Solving...
Solving...
Solving...
Solving...
Solving...
Solving...
Solving...
Solving...
Solving...
Solving...
Solving...
Solving...
Solving...
Solving...
Solving...
Solving...
Solving...
Solving...
Solving...
Solving...
Solving...
Solving...
Solving...
Solving...
Solving...
Solving...
Solving...
Solving...
Solving...
Solving...
Solving...
Solving...
Solving...
Solving...
Solving...
Solving...
Solving...
Solving...
Solving...
Solving...
Solving...
Solving...
Solving...
Solving...
Solving...
Solving...
Solving...
Solving...
Solving...
Solving...
Solving...
Solving...
Solving...
Solving...
Solving...
Solving...
Solving...
Solving...
Solving...
Solving...
Solving...
Solving...
Solving...
Solving...
Solving...
Solving...
Solving...
Solving...
Solving...
Solving...
Solving...
Solving...
Solving...
Solving...
Solving...
Solving...
Solving...
Solving...
Solving...
Solving...
UNKNOWN

TIME LIMIT   : 1
Models       : 0+
Calls        : 127
Time         : 1799.997s (Solving: 1558.56s 1st Model: 0.00s Unsat: 1558.56s)
CPU Time     : 1798.804s

Choices      : 639520  
Conflicts    : 463188   (Analyzed: 463080)
Restarts     : 1913     (Average: 242.07 Last: 1419)
Problems     : 128      (Average Length: 2.00 Splits: 0)
Lemmas       : 463080   (Deleted: 375651)
  Binary     : 3515     (Ratio:   0.76%)
  Ternary    : 8479     (Ratio:   1.83%)
  Conflict   : 463080   (Average Length:  112.4 Ratio: 100.00%) 
  Loop       : 0        (Average Length:    0.0 Ratio:   0.00%) 
  Other      : 0        (Average Length:    0.0 Ratio:   0.00%) 
Backjumps    : 463080   (Average:  1.37 Max: 210 Sum: 634199)
  Executed   : 462410   (Average:  1.37 Max: 210 Sum: 633487 Ratio:  99.89%)
  Bounded    : 670      (Average:  1.06 Max:   2 Sum:    712 Ratio:   0.11%)

Rules        : 12439363 (Original: 11069944)
  Choice     : 875     
Atoms        : 3545228  (Original: 3545165 Auxiliary: 63)
Bodies       : 10451869 (Original: 9082517)
  Count      : 27629    (Original: 59773)
Equivalences : 7372612  (Atom=Atom: 2174716 Body=Body: 37929 Other: 5159967)
Tight        : Yes
Variables    : 1876230  (Eliminated:    0 Frozen: 443668)
Constraints  : 7578122  (Binary:  67.9% Ternary:  28.8% Other:   3.3%)

